4 
5  05 35 50 
6  05 12 20 28 35 43 50 58 
7  05 13 20 28 35 43 50 58 
8  05 13 20 28 35 43 50 58 
9  05 13 20 28 35 43 50 58 
10  05 13 20 28 35 43 50 58 
11  05 13 20 28 35 43 50 58 
12  05 13 20 28 35 43 50 58 
13  05 13 20 28 35 43 50 58 
14  05 13 20 28 35 43 50 58 
15  05 13 20 28 35 43 50 58 
16  05 13 20 28 35 43 50 58 
17  05 13 20 28 35 43 50 58 
18  05 13 20 28 35 43 50 58 
19  05 13 20 28 35 43 50 58 
20  05 13 20 31 46 
21  01 16 31 46 
22  00 15 26 41 56 
23  11 26 
0 
